NAME : gaussian_missing_edges_with_de_seg1_seg2_seg3_random172.7531.tour
COMMENT : Length = 7531
COMMENT : Found by LKH [Keld Helsgaun] Fri Jul 12 16:52:03 2024
TYPE : TOUR
DIMENSION : 172
TOUR_SECTION
1
5
62
156
145
164
111
138
97
126
89
15
77
3
133
18
12
98
4
112
129
67
94
74
50
167
58
73
136
30
38
84
27
91
32
41
131
90
135
93
61
85
114
122
161
43
31
20
140
13
17
65
35
92
152
88
54
108
142
57
116
86
115
55
147
143
82
39
154
102
80
72
169
70
7
127
36
141
44
103
146
107
158
34
24
172
19
68
128
63
100
14
134
87
64
132
149
162
75
105
6
96
71
121
47
66
25
171
83
69
52
23
28
166
16
51
159
120
49
160
139
165
101
2
137
46
81
33
148
22
170
53
9
42
123
56
113
124
118
79
130
119
11
21
168
106
10
29
104
155
150
45
37
110
59
95
163
78
117
76
109
48
26
151
157
99
40
144
125
153
60
8
-1
EOF
